solution status: optimal solution found
objective value:                                    1
x59                                                 1 	(obj:1)
$_18_y                                              7 	(obj:0)
$_18_z                                             12 	(obj:0)
$_158_y                                             5 	(obj:0)
$_158_z                                            10 	(obj:0)
$_199_y                                             5 	(obj:0)
$_199_z                                            11 	(obj:0)
$_202_y                                             4 	(obj:0)
$_202_z                                            11 	(obj:0)
$_77_y                                              5 	(obj:0)
$_77_z                                              7 	(obj:0)
$_39_y                                              2 	(obj:0)
$_39_z                                              5 	(obj:0)
$_79_y                                              4 	(obj:0)
$_79_z                                              7 	(obj:0)
$_61_z                                              8 	(obj:0)
$_242_y                                             3 	(obj:0)
$_242_z                                            15 	(obj:0)
$_59_y                                              8 	(obj:0)
$_59_z                                              9 	(obj:0)
$_78_z                                             10 	(obj:0)
$_280_z                                            14 	(obj:0)
$_113_y                                             7 	(obj:0)
$_113_z                                             7 	(obj:0)
$_21_y                                             16 	(obj:0)
$_21_z                                             17 	(obj:0)
$_243_y                                             1 	(obj:0)
$_243_z                                            11 	(obj:0)
$_38_y                                              1 	(obj:0)
$_38_z                                              6 	(obj:0)
$_127_y                                             2 	(obj:0)
$_127_z                                            11 	(obj:0)
$_37_z                                              4 	(obj:0)
$_20_y                                              5 	(obj:0)
$_20_z                                             18 	(obj:0)
$_201_y                                             7 	(obj:0)
$_201_z                                            14 	(obj:0)
$_160_y                                             8 	(obj:0)
$_160_z                                            11 	(obj:0)
$_161_y                                             4 	(obj:0)
$_161_z                                            10 	(obj:0)
$_76_z                                             11 	(obj:0)
$_120_y                                             8 	(obj:0)
$_120_z                                            12 	(obj:0)
$_60_y                                             10 	(obj:0)
$_60_z                                             11 	(obj:0)
$_19_y                                             17 	(obj:0)
$_19_z                                             14 	(obj:0)
$_240_y                                             3 	(obj:0)
$_240_z                                            11 	(obj:0)
$_134_z                                            13 	(obj:0)
